Copyright (C) 2013-2015, Filipe Brandao
Build (method = -2)
  #dp: 38830
  Step-3' Graph: 306 vertices and 19037 arcs (0.10s)
  Step-4' Graph: 304 vertices and 19033 arcs (0.10s)
  #V4/#V3 = 0.99
  #A4/#A3 = 1.00
Ready! (0.10s)
Optimize a model with 502 rows, 19034 columns and 56499 nonzeros
Found heuristic solution: objective 372
Presolve removed 66 rows and 66 columns
Presolve time: 0.08s
Presolved: 436 rows, 18968 columns, 56235 nonzeros
Variable types: 0 continuous, 18968 integer (7228 binary)
Optimize a model with 436 rows, 18968 columns and 56235 nonzeros
Presolved: 436 rows, 18968 columns, 56235 nonzeros

Root barrier log...

Ordering time: 0.00s

Barrier statistics:
 AA' NZ     : 3.595e+04
 Factor NZ  : 6.313e+04 (roughly 8 MBytes of memory)
 Factor Ops : 1.226e+07 (less than 1 second per iteration)
 Threads    : 1

                  Objective                Residual
Iter       Primal          Dual         Primal    Dual     Compl     Time
   0   1.88761760e+04 -1.65217216e+05  1.84e+05 5.17e-02  4.99e+01     0s
   1   5.29484585e+03 -4.89569875e+04  2.46e+04 1.55e-15  7.36e+00     0s
   2   1.44682859e+03 -1.94124972e+04  3.10e+03 1.71e-02  1.25e+00     0s
   3   9.16530672e+02 -5.52860283e+03  4.00e+02 2.16e-03  2.40e-01     0s
   4   5.02469203e+02 -9.60220550e+02  5.76e+01 1.09e-04  4.63e-02     0s
   5   4.21516822e+02 -5.06015807e+02  3.72e+01 9.37e-16  2.84e-02     0s
   6   3.66693611e+02 -2.88504706e+02  2.78e+01 1.18e-15  1.99e-02     0s
   7   3.04967181e+02 -1.72110462e+02  1.79e+01 1.24e-15  1.41e-02     0s
   8   2.67251867e+02 -1.30114149e+02  1.25e+01 9.16e-16  1.15e-02     0s
   9   2.39101943e+02 -5.58632526e+01  9.44e+00 1.01e-15  8.45e-03     0s
  10   2.08628022e+02  1.03982780e+01  6.12e+00 9.67e-16  5.60e-03     0s
  11   1.88001592e+02  3.81390407e+01  4.07e+00 9.99e-16  4.18e-03     0s
  12   1.82876855e+02  6.24335300e+01  3.52e+00 1.11e-15  3.35e-03     0s
  13   1.73527634e+02  9.31929346e+01  2.56e+00 9.99e-16  2.22e-03     0s
  14   1.69759085e+02  1.14949828e+02  2.13e+00 9.92e-16  1.51e-03     0s
  15   1.62358277e+02  1.21988890e+02  1.20e+00 1.00e-15  1.10e-03     0s
  16   1.59389901e+02  1.36383642e+02  8.20e-01 8.15e-16  6.22e-04     0s
  17   1.57377925e+02  1.44667261e+02  4.48e-01 8.71e-16  3.41e-04     0s
  18   1.56524245e+02  1.45262070e+02  3.21e-01 9.90e-16  3.01e-04     0s
  19   1.55781345e+02  1.48287969e+02  2.05e-01 1.31e-15  1.99e-04     0s
  20   1.55601813e+02  1.49088217e+02  1.80e-01 1.42e-15  1.73e-04     0s
  21   1.54813605e+02  1.50219246e+02  6.69e-02 1.39e-15  1.21e-04     0s
  22   1.54528644e+02  1.51857302e+02  4.12e-02 1.89e-15  7.05e-05     0s
  23   1.54401614e+02  1.52613170e+02  2.97e-02 2.00e-15  4.72e-05     0s
  24   1.54285044e+02  1.52877417e+02  2.10e-02 1.72e-15  3.71e-05     0s
  25   1.54246801e+02  1.53109487e+02  1.84e-02 1.47e-15  3.00e-05     0s
  26   1.54174650e+02  1.53303590e+02  1.32e-02 1.89e-15  2.30e-05     0s
  27   1.54143419e+02  1.53398468e+02  1.14e-02 1.63e-15  1.96e-05     0s
  28   1.54113501e+02  1.53579650e+02  9.77e-03 1.47e-15  1.41e-05     0s
  29   1.54078061e+02  1.53740268e+02  7.35e-03 1.35e-15  8.92e-06     0s
  30   1.54057348e+02  1.53837358e+02  5.93e-03 1.46e-15  5.81e-06     0s
  31   1.54018973e+02  1.53858040e+02  3.63e-03 1.49e-15  4.25e-06     0s
  32   1.54006516e+02  1.53885636e+02  3.08e-03 1.45e-15  3.19e-06     0s
  33   1.53985636e+02  1.53909216e+02  2.14e-03 1.32e-15  2.02e-06     0s
  34   1.53978974e+02  1.53920175e+02  1.84e-03 1.42e-15  1.55e-06     0s
  35   1.53973530e+02  1.53934024e+02  1.52e-03 1.41e-15  1.04e-06     0s
  36   1.53962207e+02  1.53946817e+02  5.90e-04 1.55e-15  4.07e-07     0s
  37   1.53955160e+02  1.53954381e+02  7.22e-06 1.30e-15  2.05e-08     0s
  38   1.53955000e+02  1.53954999e+02  3.04e-12 1.35e-15  2.05e-11     0s
  39   1.53955000e+02  1.53955000e+02  3.63e-12 1.38e-15  3.28e-16     0s

Barrier solved model in 39 iterations and 0.33 seconds
Optimal objective 1.53955000e+02


Root relaxation: objective 1.539550e+02, 12714 iterations, 0.46 seconds

    Nodes    |    Current Node    |     Objective Bounds      |     Work
 Expl Unexpl |  Obj  Depth IntInf | Incumbent    BestBd   Gap | It/Node Time

     0     0  153.95500    0   83  372.00000  153.95500  58.6%     -    2s
H    0     0                     157.0000000  153.95500  1.94%     -    2s
H    0     0                     155.0000000  153.95500  0.67%     -    2s
H    0     0                     154.0000000  153.95500  0.03%     -    2s

Explored 0 nodes (22591 simplex iterations) in 2.66 seconds
Thread count was 1 (of 4 available processors)

Optimal solution found (tolerance 0.00e+00)
Best objective 1.540000000000e+02, best bound 1.540000000000e+02, gap 0.0%
Preprocessing time: 0.13 seconds
Gurobi run time: 2.66 seconds
Total run time: 2.79 seconds
Objective: 154
Solution:
1 x [i=1, i=174, i=189]
1 x [i=2, i=131]
1 x [i=2, i=172, i=190]
1 x [i=3, i=169, i=194]
1 x [i=3, i=171, i=190]
1 x [i=4, i=162, i=197]
1 x [i=5, i=129]
1 x [i=6, i=127]
1 x [i=7, i=126]
1 x [i=8, i=125]
1 x [i=8, i=160, i=196]
1 x [i=8, i=165, i=192]
1 x [i=8, i=169, i=188]
2 x [i=9, i=172, i=182]
3 x [i=10, i=123]
1 x [i=11, i=122]
2 x [i=12, i=161, i=191]
1 x [i=12, i=173, i=178]
1 x [i=13, i=173, i=177]
2 x [i=14, i=121]
1 x [i=15, i=120]
1 x [i=16, i=118]
1 x [i=17, i=156, i=190]
3 x [i=17, i=160, i=185]
3 x [i=18, i=116]
1 x [i=18, i=158, i=186]
2 x [i=19, i=153, i=193]
1 x [i=20, i=114]
1 x [i=21, i=113]
2 x [i=22, i=112]
2 x [i=22, i=145, i=198]
1 x [i=23, i=110]
1 x [i=24, i=108]
1 x [i=25, i=153, i=184]
1 x [i=26, i=106]
1 x [i=27, i=105]
1 x [i=27, i=144, i=194]
1 x [i=28, i=103]
1 x [i=29, i=102]
1 x [i=30, i=101]
1 x [i=31, i=99]
1 x [i=31, i=164, i=165]
2 x [i=32, i=97]
1 x [i=33, i=96]
1 x [i=34, i=142, i=186]
1 x [i=35, i=94]
1 x [i=35, i=142, i=185]
1 x [i=36, i=93]
1 x [i=37, i=92]
1 x [i=37, i=155, i=168]
1 x [i=38, i=90]
2 x [i=39, i=88]
1 x [i=39, i=150, i=170]
2 x [i=40, i=87]
1 x [i=40, i=132, i=189]
3 x [i=41, i=85]
1 x [i=41, i=139, i=179]
3 x [i=42, i=84]
2 x [i=42, i=136, i=181]
1 x [i=43, i=83]
1 x [i=44, i=82]
2 x [i=44, i=138, i=177]
1 x [i=44, i=142, i=173]
1 x [i=44, i=146, i=170]
2 x [i=45, i=81]
1 x [i=46, i=79]
1 x [i=47, i=78]
1 x [i=48, i=77]
1 x [i=49, i=77]
1 x [i=50, i=153, i=155]
1 x [i=51, i=75]
1 x [i=52, i=73]
2 x [i=53, i=72]
1 x [i=54, i=71]
1 x [i=54, i=146, i=159]
1 x [i=55, i=70]
2 x [i=56, i=107, i=197]
2 x [i=57, i=122, i=180]
2 x [i=58, i=68]
1 x [i=59, i=104, i=197]
1 x [i=59, i=136, i=163]
1 x [i=59, i=145, i=155]
2 x [i=60, i=67]
1 x [i=60, i=138, i=160]
1 x [i=61, i=66]
2 x [i=62, i=65]
1 x [i=62, i=104, i=195]
1 x [i=62, i=148, i=149]
1 x [i=63, i=130, i=168]
1 x [i=64, i=111, i=187]
1 x [i=66, i=128, i=166]
1 x [i=67, i=117, i=177]
1 x [i=67, i=126, i=167]
1 x [i=69, i=129, i=160]
1 x [i=73, i=100, i=186]
1 x [i=74, i=90, i=195]
1 x [i=74, i=136, i=148]
1 x [i=76, i=90, i=192]
1 x [i=76, i=100, i=182]
1 x [i=78, i=97, i=183]
1 x [i=79, i=105, i=175]
1 x [i=79, i=137, i=143]
1 x [i=80, i=139, i=140]
1 x [i=81, i=102, i=176]
1 x [i=81, i=120, i=158]
1 x [i=81, i=133, i=146]
1 x [i=86, i=134, i=139]
1 x [i=89, i=102, i=169]
1 x [i=90, i=126, i=145]
3 x [i=91, i=98, i=170]
2 x [i=91, i=119, i=151]
1 x [i=93, i=109, i=157]
1 x [i=95, i=159, i=167, i=179]
2 x [i=103, i=104, i=154]
1 x [i=103, i=110, i=184, i=197]
3 x [i=105, i=124, i=134]
1 x [i=108, i=117, i=138]
1 x [i=108, i=108, i=147]
1 x [i=115, i=141, i=150, i=189]
1 x [i=118, i=135, i=152, i=190]
